SECTION Graph
Nodes 138
Edges 257
E 1 6 7
E 1 121 1
E 1 122 1
E 1 123 6
E 2 123 5
E 3 121 6
E 3 123 1
E 4 122 6
E 4 123 1
E 5 10 7
E 5 116 1
E 5 117 1
E 5 118 5
E 6 118 6
E 6 119 1
E 6 120 1
E 7 116 5
E 7 118 1
E 7 119 6
E 8 117 5
E 8 118 1
E 8 120 6
E 9 14 7
E 9 111 1
E 9 112 1
E 9 113 6
E 10 113 5
E 10 114 1
E 10 115 1
E 11 111 6
E 11 113 1
E 11 114 5
E 12 112 6
E 12 113 1
E 12 115 5
E 13 18 7
E 13 106 1
E 13 107 1
E 13 108 5
E 14 108 6
E 14 109 1
E 14 110 1
E 15 106 5
E 15 108 1
E 15 109 6
E 16 107 5
E 16 108 1
E 16 110 6
E 17 22 7
E 17 101 1
E 17 102 1
E 17 103 6
E 18 103 5
E 18 104 1
E 18 105 1
E 19 101 6
E 19 103 1
E 19 104 5
E 20 102 6
E 20 103 1
E 20 105 5
E 21 26 7
E 21 96 1
E 21 97 1
E 21 98 5
E 22 98 6
E 22 99 1
E 22 100 1
E 23 96 5
E 23 98 1
E 23 99 6
E 24 97 5
E 24 98 1
E 24 100 6
E 25 30 7
E 25 91 1
E 25 92 1
E 25 93 6
E 26 93 5
E 26 94 1
E 26 95 1
E 27 91 6
E 27 93 1
E 27 94 5
E 28 92 6
E 28 93 1
E 28 95 5
E 29 34 7
E 29 86 1
E 29 87 1
E 29 88 5
E 30 88 6
E 30 89 1
E 30 90 1
E 31 86 5
E 31 88 1
E 31 89 6
E 32 87 5
E 32 88 1
E 32 90 6
E 33 38 7
E 33 81 1
E 33 82 1
E 33 83 6
E 34 83 5
E 34 84 1
E 34 85 1
E 35 81 6
E 35 83 1
E 35 84 5
E 36 82 6
E 36 83 1
E 36 85 5
E 37 42 7
E 37 76 1
E 37 77 1
E 37 78 5
E 38 78 6
E 38 79 1
E 38 80 1
E 39 76 5
E 39 78 1
E 39 79 6
E 40 77 5
E 40 78 1
E 40 80 6
E 41 46 7
E 41 71 1
E 41 72 1
E 41 73 6
E 42 73 5
E 42 74 1
E 42 75 1
E 43 71 6
E 43 73 1
E 43 74 5
E 44 72 6
E 44 73 1
E 44 75 5
E 45 50 7
E 45 66 1
E 45 67 1
E 45 68 5
E 46 68 6
E 46 69 1
E 46 70 1
E 47 66 5
E 47 68 1
E 47 69 6
E 48 67 5
E 48 68 1
E 48 70 6
E 49 54 7
E 49 61 1
E 49 62 1
E 49 63 6
E 50 63 5
E 50 64 1
E 50 65 1
E 51 61 6
E 51 63 1
E 51 64 5
E 52 62 6
E 52 63 1
E 52 65 5
E 53 58 5
E 54 58 6
E 54 59 1
E 54 60 1
E 55 58 1
E 55 59 6
E 56 58 1
E 56 60 6
E 57 67 198
E 59 61 7
E 60 62 7
E 64 66 7
E 65 67 7
E 69 71 7
E 70 72 7
E 74 76 7
E 75 77 7
E 79 81 7
E 80 82 7
E 84 86 7
E 85 87 7
E 89 91 7
E 90 92 7
E 94 96 7
E 95 97 7
E 99 101 7
E 100 102 7
E 104 106 7
E 105 107 7
E 109 111 7
E 110 112 7
E 114 116 7
E 115 117 7
E 119 121 7
E 120 122 7
E 1 124 100000
E 2 124 100000
E 3 124 100000
E 4 124 100000
E 5 125 100000
E 6 125 100000
E 7 125 100000
E 8 125 100000
E 9 126 100000
E 10 126 100000
E 11 126 100000
E 12 126 100000
E 13 127 100000
E 14 127 100000
E 15 127 100000
E 16 127 100000
E 17 128 100000
E 18 128 100000
E 19 128 100000
E 20 128 100000
E 21 129 100000
E 22 129 100000
E 23 129 100000
E 24 129 100000
E 25 130 100000
E 26 130 100000
E 27 130 100000
E 28 130 100000
E 29 131 100000
E 30 131 100000
E 31 131 100000
E 32 131 100000
E 33 132 100000
E 34 132 100000
E 35 132 100000
E 36 132 100000
E 37 133 100000
E 38 133 100000
E 39 133 100000
E 40 133 100000
E 41 134 100000
E 42 134 100000
E 43 134 100000
E 44 134 100000
E 45 135 100000
E 46 135 100000
E 47 135 100000
E 48 135 100000
E 49 136 100000
E 50 136 100000
E 51 136 100000
E 52 136 100000
E 53 137 100000
E 54 137 100000
E 55 137 100000
E 56 137 100000
E 57 138 100000
END

SECTION Terminals
Terminals 15
T 124
T 125
T 126
T 127
T 128
T 129
T 130
T 131
T 132
T 133
T 134
T 135
T 136
T 137
T 138
END

EOF
